NAME : A-n32-k5
COMMENT : (Augerat et al, Min no of trucks: 5, Optimal value: 784)
TYPE : CVRP
DIMENSION : 8
EDGE_WEIGHT_TYPE : EUC_2D 
CAPACITY : 100
NODE_COORD_SECTION 
 1 82 76
 2 96 44
 3 50 5
 4 49 8
 5 13 7
 6 29 89
 7 58 30
 8 84 39
DEMAND_SECTION 
1 0 
2 10 
3 20 
4 20 
5 20 
6 50
7 20 
8 35 
DEPOT_SECTION 
 1  
 -1  
EOF 
